% demand
num_movements = 30;
loading_factor = [950, 1050, 1900, 2000, 1100, 1950, 800, 1800, 1400, 1050, 1700, 1800, 950, 1200, 1150, 1950, 1850, 800, 1900, 1500, 800, 1450, 1550, 1300, 950, 1600, 1050, 1650, 950, 1100];
pickup_time = [0, 0, 0, 0, 0, 1, 2, 2, 2, 5, 5, 6, 7, 7, 7, 7, 10, 10, 10, 11, 11, 11, 11, 11, 12, 12, 12, 13, 13, 13];
delivery_time = [1, 5, 1, 1, 1, 4, 6, 5, 5, 6, 6, 7, 11, 9, 11, 8, 11, 11, 11, 12, 12, 12, 13, 13, 14, 14, 13, 14, 14, 14];

% transporter definition
total_capacity = 7000;
num_decks = 3;
capacity = [3000, 1000, 3000];

% ways out of decks
num_ways_out = 1;
paths_out = array3d(decks, ways_out, decks, [
% ways out of deck d1
2, 3, 0, 

% ways out of deck d2
3, 0, 0, 

% ways out of deck d3
0, 0, 0,	

]);

